%nprocshared=16
%mem=8GB
%chk=confheterolysisNegativeMetal-test.chk
#opt mn15/genecp integral=ultrafine

TSS

0 1
W 1.5458726859 1.2036480142 15.186893372
Cl 2.5887835733 -0.5026542604 13.6554083187
P 2.9989079968 -0.3830887649 16.7094049576
P 2.916855679 2.5077926163 13.5648076962
C -0.0576428387 -0.2785517159 15.0705559938
C -0.5505603949 1.0381334491 14.7921088763
C -0.0161503655 1.7192737133 13.6543589671
C 2.9831108181 -0.0411306296 18.505610172
C 4.7748454511 -0.4348094375 16.2980363417
C 2.4536500327 -2.1180028437 16.6082455842
C 2.7179417754 4.2970320389 13.8899440179
C 2.5795076495 2.3244215045 11.7919188482
C 4.7074909129 2.2151113249 13.7329483886
H -0.3355598197 -0.709995772 16.0417780529
H 0.0905158398 -1.0133461322 14.2721429903
H -1.1918240067 1.5630130784 15.5127037791
H 0.1866095599 1.1358148572 12.747813861
H -0.3384380872 2.7494890485 13.4685444385
H 1.9523277864 -0.0779952338 18.8875105095
H 3.5837370695 -0.7910683389 19.0420136766
H 3.3978691061 0.9563713144 18.7092854454
H 4.8805392883 -0.7106525514 15.2403285647
H 5.2322630366 0.5497930996 16.4689859213
H 5.2832999936 -1.1803988405 16.9277567392
H 1.43636042 -2.2119569225 17.0131137944
H 2.4532930677 -2.4334914086 15.5564364826
H 3.1333620265 -2.7571268767 17.19134091
H 1.6691150599 4.5901627828 13.7384241005
H 3.007227976 4.5338518945 14.924060321
H 3.3534567575 4.8783489081 13.2047146968
H 2.6404077376 1.2599429938 11.5279225229
H 1.5777948933 2.7067087802 11.5562359123
H 3.3290936506 2.894130697 11.2232321649
H 5.0261680668 2.4131730293 14.7661906343
H 4.906413294 1.1635854256 13.4860283011
H 5.2695417494 2.8713642195 13.0514070157

W 0
Def2SVP
****
Cl C P H 0
Def2SVP
****

W 0
Def2SVP

--link1--
%nprocshared=16
%mem=28GB
%chk=checkFile.chk
# mn15/genecp integral=ultrafine geom=check

Title

0 1

-H     0
S    3   1.00
     34.0613410              0.60251978D-02
      5.1235746              0.45021094D-01
      1.1646626              0.20189726
S    1   1.00
      0.32723041             1.0000000
S    1   1.00
      0.10307241             1.0000000
P    1   1.00
      0.8000000              1.0000000
P    1   1.00
      0.95774129632D-01      1.0000000
****
-B     0
S    6   1.00
   8564.8660687              0.22837198155D-03
   1284.1516263              0.17682576447D-02
    292.27871604             0.91407080516D-02
     82.775469176            0.36342638989D-01
     27.017939269            0.11063458441
      9.8149619660           0.23367344321
S    2   1.00
      3.9318559059           0.41818777978
      1.6595599712           0.22325473798
S    1   1.00
      0.35762965239          1.0000000
S    1   1.00
      0.14246277496          1.0000000
S    1   1.00
      0.60560594768D-01      1.0000000
S    1   1.00
      0.31334737069D-01      1.0000000
P    4   1.00
     22.453875803            0.50265575179D-02
      5.1045058330           0.32801738965D-01
      1.4986081344           0.13151230768
      0.50927831315          0.33197167769
P    1   1.00
      0.18147077798           .47314319570
P    1   1.00
      0.64621893904D-01       .25802783943
D    1   1.00
      0.66100000             1.0000000
D    1   1.00
      0.19900000             1.0000000
D    1   1.00
      0.59549085820D-01      1.0000000
F    1   1.00
      0.49000000             1.0000000
****
-C     0
S    6   1.00
  13575.3496820              0.22245814352D-03
   2035.2333680              0.17232738252D-02
    463.22562359             0.89255715314D-02
    131.20019598             0.35727984502D-01
     42.853015891            0.11076259931
     15.584185766            0.24295627626
S    2   1.00
      6.2067138508           0.41440263448
      2.5764896527           0.23744968655
S    1   1.00
      0.57696339419          1.0000000
S    1   1.00
      0.22972831358          1.0000000
S    1   1.00
      0.95164440028D-01      1.0000000
S    1   1.00
      0.48475401370D-01      1.0000000
P    4   1.00
     34.697232244            0.53333657805D-02
      7.9582622826           0.35864109092D-01
      2.3780826883           0.14215873329
      0.81433208183          0.34270471845
P    1   1.00
      0.28887547253           .46445822433
P    1   1.00
      0.10056823671           .24955789874
D    1   1.00
      1.09700000             1.0000000
D    1   1.00
      0.31800000             1.0000000
D    1   1.00
      0.90985336424D-01      1.0000000
F    1   1.00
      0.76100000             1.0000000
****
-N     0
S    6   1.00
  19730.8006470              0.21887984991D-03
   2957.8958745              0.16960708803D-02
    673.22133595             0.87954603538D-02
    190.68249494             0.35359382605D-01
     62.295441898            0.11095789217
     22.654161182            0.24982972552
S    2   1.00
      8.9791477428           0.40623896148
      3.6863002370           0.24338217176
S    1   1.00
      0.84660076805          1.0000000
S    1   1.00
      0.33647133771          1.0000000
S    1   1.00
      0.13647653675          1.0000000
S    1   1.00
      0.68441605847D-01      1.0000000
P    4   1.00
     49.200380510            0.55552416751D-02
     11.346790537            0.38052379723D-01
      3.4273972411           0.14953671029
      1.1785525134           0.34949305230
P    1   1.00
      0.41642204972           .45843153697
P    1   1.00
      0.14260826011           .24428771672
D    1   1.00
      1.65400000             1.0000000
D    1   1.00
      0.46900000             1.0000000
D    1   1.00
      0.12829642058          1.0000000
F    1   1.00
      1.09300000             1.0000000
****
-O     0
S    6   1.00
  27032.3826310              0.21726302465D-03
   4052.3871392              0.16838662199D-02
    922.32722710             0.87395616265D-02
    261.24070989             0.35239968808D-01
     85.354641351            0.11153519115
     31.035035245            0.25588953961
S    2   1.00
     12.260860728            0.39768730901
      4.9987076005           0.24627849430
S    1   1.00
      1.1703108158           1.0000000
S    1   1.00
      0.46474740994          1.0000000
S    1   1.00
      0.18504536357          1.0000000
S    1   1.00
      0.70288026270D-01      1.0000000
P    4   1.00
     63.274954801            0.60685103418D-02
     14.627049379            0.41912575824D-01
      4.4501223456           0.16153841088
      1.5275799647           0.35706951311
P    1   1.00
      0.52935117943           .44794207502
P    1   1.00
      0.17478421270           .24446069663
P    1   1.00
      0.51112745706D-01      1.0000000
D    1   1.00
      2.31400000             1.0000000
D    1   1.00
      0.64500000             1.0000000
D    1   1.00
      0.14696477366          1.0000000
F    1   1.00
      1.42800000             1.0000000
****
-F     0
S    6   1.00
  35479.1004410              0.21545014888D-03
   5318.4728983              0.16700686527D-02
   1210.4810975              0.86733211476D-02
    342.85518140             0.35049933175D-01
    112.01943181             0.11165320133
     40.714740248            0.25988506647
S    2   1.00
     16.039678111            0.39422966880
      6.5038186740           0.24998238551
S    1   1.00
      1.5440477509           1.0000000
S    1   1.00
      0.61223452862          1.0000000
S    1   1.00
      0.24027979698          1.0000000
S    1   1.00
      0.90918446478D-01      1.0000000
P    4   1.00
     80.233900483            0.63685999134D-02
     18.594010743            0.44303143530D-01
      5.6867902653           0.16867248708
      1.9511006294           0.36166346255
P    1   1.00
      0.66970211298           .44202901491
P    1   1.00
      0.21651300410           .24319875730
P    1   1.00
      0.59613282472D-01      1.0000000
D    1   1.00
      3.10700000             1.0000000
D    1   1.00
      0.85500000             1.0000000
D    1   1.00
      0.18608388111          1.0000000
F    1   1.00
      1.91700000             1.0000000
****
-Si     0
S    7   1.00
  44773.3580780              0.55914765868D-03
   6717.1992104              0.43206040189D-02
   1528.8960325              0.22187096460D-01
    432.54746585             0.86489249116D-01
    140.61505226             0.24939889716
     49.857636724            0.46017197366
     18.434974885            0.34250236575
S    3   1.00
     86.533886111            0.21300063007D-01
     26.624606846            0.94676139318D-01
      4.4953057159          -0.32616264859
S    2   1.00
      2.1035045710           1.3980803850
      1.0106094922           0.63865786699
S    1   1.00
      0.23701751489          1.0000000
S    1   1.00
      0.85703405362D-01      1.0000000
S    1   1.00
      0.37000771280D-01      1.0000000
P    5   1.00
    394.47503628             0.26285693959D-02
     93.137683104            0.20556257749D-01
     29.519608742            0.92070262801D-01
     10.781663791            0.25565889739
      4.1626574778           0.42111707185
P    1   1.00
      1.6247972989            .34401746318
P    1   1.00
      0.54306660493          1.0000000
P    1   1.00
      0.20582073956          1.0000000
P    1   1.00
      0.70053487306D-01      1.0000000
D    2   1.00
      2.30300000             0.20000000
      0.476000000            1.00000000
D    1   1.00
      0.160000000            1.0000000
D    1   1.00
      0.55036090333D-01      1.0000000
F    1   1.00
      0.336000000            1.0000000
****
-P     0
S    7   1.00
  52426.9992330              0.55207164100D-03
   7863.2660552              0.42678595308D-02
   1789.5227333              0.21931529186D-01
    506.27300165             0.85667168373D-01
    164.60698546             0.24840686605
     58.391918722            0.46336753971
     21.643663201            0.35350558156
S    3   1.00
     99.013837620            0.21895679958D-01
     30.550439817            0.95650470295D-01
      5.4537087661          -0.29454270186
S    2   1.00
      2.6503362563           1.3294381200
      1.2726688867           0.66109396473
S    1   1.00
      0.31645005203          1.0000000
S    1   1.00
      0.11417466938          1.0000000
S    1   1.00
      0.48831315225D-01      1.0000000
P    5   1.00
    472.27219248             0.25710623052D-02
    111.58882756             0.20250297999D-01
     35.445936418            0.91580716787D-01
     12.990776875            0.25749454014
      5.0486221658           0.42862899758
P    1   1.00
      1.9934049566            .34359817849
P    1   1.00
      0.66527284430          1.0000000
P    1   1.00
      0.25516832128          1.0000000
P    1   1.00
      0.90357762251D-01      1.0000000
D    2   1.00
      3.12000000             0.20000000
      0.648000000            1.00000000
D    1   1.00
      0.218000000            1.0000000
D    1   1.00
      0.73569545334D-01      1.0000000
F    1   1.00
      0.452000000            1.0000000
****
-S     0
S    7   1.00
  60700.9281040              0.54695944225D-03
   9102.6106854              0.42297224557D-02
   2071.4166009              0.21747824159D-01
    586.02476821             0.85100053589D-01
    190.55395021             0.24799128459
     67.630384260            0.46703640406
     25.127306905            0.36434587550
S    3   1.00
    112.57463010             0.21670040240D-01
     34.795554217            0.93602301760D-01
      6.5115556215          -0.26068001422
S    2   1.00
      3.2399032261           1.2842089435
      1.5477160881           0.66036416584
S    1   1.00
      0.40541030112          1.0000000
S    1   1.00
      0.14550651059          1.0000000
S    1   1.00
      0.50178839540D-01      1.0000000
P    5   1.00
    564.36716027             0.24796796317D-02
    133.42624379             0.19677930250D-01
     42.468271189            0.89980008258D-01
     15.616527580            0.25705880575
      6.1093988469           0.43515167292
P    1   1.00
      2.4404160198            .34883240595
P    1   1.00
      0.83882201296          1.0000000
P    1   1.00
      0.31288746900          1.0000000
P    1   1.00
      0.10770109004          1.0000000
P    1   1.00
      0.30359833649D-01      1.0000000
D    2   1.00
      3.75600000             0.20000000
      0.812000000            1.00000000
D    1   1.00
      0.273000000            1.0000000
D    1   1.00
      0.81547024970D-01      1.0000000
F    1   1.00
      0.557000000            1.0000000
****
-Cl     0
S    7   1.00
  69507.9909450              0.54314897497D-03
  10426.1568800              0.41990463961D-02
   2373.2334061              0.21592141679D-01
    671.56420071             0.84598850094D-01
    218.41999790             0.24757249724
     77.572249714            0.47016930228
     28.888815277            0.37436370716
S    3   1.00
    127.10527185             0.25182166603D-01
     39.339582961            0.10786112456
      7.6740679989          -0.27408821574
S    2   1.00
      3.8745627630           1.3213875014
      1.8385832573           0.68636955368
S    1   1.00
      0.50229057542          1.0000000
S    1   1.00
      0.17962723420          1.0000000
S    1   1.00
      0.61133095854D-01      1.0000000
P    5   1.00
    666.50423284             0.23632663836D-02
    157.64241690             0.18879300374D-01
     50.262520978            0.87206341273D-01
     18.536078105            0.25285612970
      7.2940532777           0.43507154820
P    1   1.00
      2.9433248995            .35026513165
P    1   1.00
      1.0404970818           1.0000000
P    1   1.00
      0.38456415080          1.0000000
P    1   1.00
      0.13069642732          1.0000000
P    1   1.00
      0.35381580722D-01      1.0000000
D    2   1.00
      4.61000000             0.20000000
      1.01100000             1.00000000
D    1   1.00
      0.339000000            1.0000000
D    1   1.00
      0.99601358790D-01      1.0000000
F    1   1.00
      0.706000000            1.0000000
****
-Sc     0
S    8   1.00
 191612.9187400              0.23076475942D-03
  28723.8503630              0.17890329946D-02
   6537.0116490              0.92990401140D-02
   1850.3097171              0.37739438011D-01
    602.38855156             0.12227148359
    216.17324766             0.28814821470
     83.712517880            0.40517543099
     32.908707189            0.20566019623
S    4   1.00
    211.34393234            -0.24527991462D-01
     65.128920139           -0.11570158142
     10.034311535            0.55995283317
      4.1596884597           0.56087765073
S    2   1.00
      6.0009041613          -0.22840494325
      0.98255784150          0.71948970378
S    1   1.00
      0.42483192773          1.0000000
S    1   1.00
      0.77185462096D-01      1.0000000
S    1   1.00
      0.30147219702D-01      1.0000000
P    6   1.00
    947.34122823             0.24737208744D-02
    224.09699732             0.19742967060D-01
     71.560334882            0.90357147549D-01
     26.444824490            0.25201602503
     10.393798285            0.39675535929
      4.1606304559           0.23208624517
P    3   1.00
     15.565737135           -0.27129423974D-01
      2.1121544865           0.55109256629
      0.84184709021          1.0090635806
P    1   1.00
      0.32297542652          1.0000000
P    1   1.00
      0.0897480              1.0000000
P    1   1.00
      0.22452578888D-01      1.0000000
D    4   1.00
     30.989390993            0.11902837431D-01
      8.6905465069           0.67655856850D-01
      2.9520256337           0.21332539722
      1.0761910745           0.38391075578
D    1   1.00
      0.38338915095           .43354716259
D    1   1.00
      0.12534686113           .24509263822
D    1   1.00
      0.0410000              1.0000000
F    1   1.00
      0.3450000              1.0000000
****
-Ti     0
S    8   1.00
 211575.6902500              0.23318151011D-03
  31714.9450580              0.18079690851D-02
   7217.5476543              0.93984311352D-02
   2042.9394247              0.38156853618D-01
    665.12896208             0.12374757197
    238.74942264             0.29208551143
     92.508691001            0.41226800855
     36.403919209            0.21090534061
S    4   1.00
    232.72624607            -0.24920140738D-01
     71.791209711           -0.11746490087
     11.158534615            0.56503342318
      4.6548135416           0.56211101812
S    2   1.00
      6.8034629174          -0.23011425503
      1.1201076403           0.72103186735
S    1   1.00
      0.48080118839          1.0000000
S    1   1.00
      0.85157274977D-01      1.0000000
S    1   1.00
      0.32657477046D-01      1.0000000
P    6   1.00
   1063.1474732              0.24690839320D-02
    251.56507061             0.19773345523D-01
     80.408554854            0.90987976672D-01
     29.768193269            0.25559900413
     11.736830556            0.40489386764
      4.7142375230           0.23693402558
P    3   1.00
     17.796803704           -0.27878639615D-01
      2.4272698680           0.55672914668
      0.96823445537          1.0055447350
P    1   1.00
      0.37056694165          1.0000000
P    1   1.00
      0.1015610              1.0000000
P    1   1.00
      0.22796494396D-01      1.0000000
D    4   1.00
     37.713384723            0.11513835092D-01
     10.692931184            0.67246343996D-01
      3.6728446990           0.21484207775
      1.3588590303           0.38890892779
D    1   1.00
      0.49213295253           .43040835243
D    1   1.00
      0.16330520653           .23253305465
D    1   1.00
      0.0540000              1.0000000
F    1   1.00
      0.5620000              1.0000000
****
-V     0
S    8   1.00
 232340.6505800              0.23072410092D-03
  34828.8411700              0.17888178962D-02
   7926.5448691              0.92992490131D-02
   2243.7733046              0.37761463347D-01
    730.59322944             0.12255909662
    262.32219631             0.28963508811
    101.70403805             0.41004702955
     40.064784617            0.21113610858
S    4   1.00
    255.24014968            -0.24458116338D-01
     78.804646961           -0.11527205366
     12.340598946            0.55174749453
      5.1742019219           0.54504528489
S    2   1.00
      7.6513894469          -0.22967638286
      1.2639759898           0.71683769077
S    1   1.00
      0.53861761721          1.0000000
S    1   1.00
      0.92719296124D-01      1.0000000
S    1   1.00
      0.34998055176D-01      1.0000000
P    6   1.00
   1184.2369151              0.24449826729D-02
    280.23075192             0.19643454466D-01
     89.643627137            0.90796949190D-01
     33.242411253            0.25650768222
     13.144514452            0.40815393750
      5.2948534140           0.23860378268
P    3   1.00
     20.175586851           -0.28241489023D-01
      2.7605865197           0.55574635619
      1.1008900902           0.99319919270
P    1   1.00
      0.42013310739          1.0000000
P    1   1.00
      0.1112480              1.0000000
P    1   1.00
      0.25995909929D-01      1.0000000
D    4   1.00
     43.861134864            0.11487174238D-01
     12.516021891            0.68247153977D-01
      4.3313854957           0.21837784195
      1.6138855773           0.39245212296
D    1   1.00
      0.58749573961           .42634466786
D    1   1.00
      0.19515723011           .22646562601
D    1   1.00
      0.0650000              1.0000000
F    1   1.00
      0.8310000              1.0000000
****
-Cr     0
S    8   1.00
 254477.8070400              0.23386945693D-03
  38131.7970540              0.18142601800D-02
   8675.2930607              0.94363925721D-02
   2455.0099848              0.38343639367D-01
    799.16217787             0.12459194837
    286.90021489             0.29489696029
    111.25413232             0.41846149607
     43.864152636            0.21633763420
S    4   1.00
    279.32669173            -0.23450908111D-01
     86.274732376           -0.11080370027
     13.555756113            0.53028965842
      5.6978112751           0.51603516947
S    2   1.00
      8.5636582615          -0.38109545675
      1.3988296768           1.1991591436
S    1   1.00
      0.57288171116          1.0000000
S    1   1.00
      0.90096171317D-01      1.0000000
S    1   1.00
      0.34125885135D-01      1.0000000
P    6   1.00
   1306.4398864              0.24277326185D-02
    309.25311441             0.19544041017D-01
     98.996273963            0.90651794553D-01
     36.756916451            0.25699279154
     14.566657077            0.40935504891
      5.8739937432           0.23729388849
P    3   1.00
     22.890999695           -0.28166026613D-01
      3.0855001822           0.56034120148
      1.2132329118           0.98119019650
P    1   1.00
      0.44931680699          1.0000000
P    1   1.00
      0.1206750              1.0000000
P    1   1.00
      0.25923467275D-01      1.0000000
D    4   1.00
     43.720074476            0.13622964026D-01
     12.391242652            0.78935180133D-01
      4.2639442006           0.23833840000
      1.5525221790           0.39526851122
D    1   1.00
      0.53761929485           .41061717056
D    1   1.00
      0.16493173074           .24440410795
D    1   1.00
      0.0510000              1.0000000
F    1   1.00
      1.1470000              1.0000000
****
-Mn     0
S    8   1.00
 277185.0015300              0.22838385133D-03
  41550.7698900              0.17707650375D-02
   9455.9700152              0.92077209994D-02
   2676.5206482              0.37415971825D-01
    871.46687530             0.12164861426
    312.98306420             0.28824392499
    121.44454051             0.41041600847
     47.922598829            0.21372375145
S    4   1.00
    303.66723163            -0.24589926140D-01
     93.881403187           -0.11602608038
     14.879421214            0.55112059677
      6.2865200745           0.53707560756
S    2   1.00
      9.4858591337          -0.22889262695
      1.5698706158           0.71196169587
S    1   1.00
      0.65903213608          1.0000000
S    1   1.00
      0.10686292371          1.0000000
S    1   1.00
      0.39267435433D-01      1.0000000
P    6   1.00
   1444.7978182              0.23994136455D-02
    342.06551197             0.19369286864D-01
    109.58400891             0.90236108988D-01
     40.747988173            0.25745467851
     16.188626566            0.41272351958
      6.5484505964           0.24087700007
P    3   1.00
     25.357086437           -0.28707174058D-01
      3.4830168782           0.55208100712
      1.3858800906           0.97226901379
P    1   1.00
      0.52555094893          1.0000000
P    1   1.00
      0.1276500              1.0000000
P    1   1.00
      0.30240117841D-01      1.0000000
D    4   1.00
     56.563189119            0.11543245294532D-01
     16.278734711            0.70299845987196D-01
      5.6964273914           0.22450770821295
      2.1411147942           0.39703065434226
D    1   1.00
      0.78291801938           .41941039165375
D    1   1.00
      0.25952311214           .21887261672743
D    1   1.00
      0.0860000              1.0000000
F    1   1.00
      1.3260000              1.0000000
****
-Fe     0
S    8   1.00
 300784.8463700              0.22806273096D-03
  45088.9705570              0.17681788761D-02
  10262.5163170              0.91927083490D-02
   2905.2897293              0.37355495807D-01
    946.11487137             0.12151108426
    339.87832894             0.28818881468
    131.94425588             0.41126612677
     52.111494077            0.21518583573
S    4   1.00
    329.48839267            -0.24745216477D-01
    101.92332739            -0.11683089050
     16.240462745            0.55293621136
      6.8840675801           0.53601640182
S    2   1.00
     10.470693782           -0.22912708577
      1.7360039648           0.71159319984
S    1   1.00
      0.72577288979          1.0000000
S    1   1.00
      0.11595528203          1.0000000
S    1   1.00
      0.41968227746D-01      1.0000000
P    6   1.00
   1585.3959970              0.23793960179D-02
    375.38006499             0.19253154755D-01
    120.31816501             0.90021836536D-01
     44.788749031            0.25798172356
     17.829278584            0.41492649744
      7.2247153786           0.24207474784
P    3   1.00
     28.143219756           -0.29041755152D-01
      3.8743241412           0.55312260343
      1.5410752281           0.96771136842
P    1   1.00
      0.58285615250          1.0000000
P    1   1.00
      0.1349150              1.0000000
P    1   1.00
      0.32659193959D-01      1.0000000
D    4   1.00
     61.996675034            0.11971972255D-01
     17.873732552            0.73210135410D-01
      6.2744782934           0.23103094314
      2.3552337175           0.39910706494
D    1   1.00
      0.85432239901           .41391589765
D    1   1.00
      0.27869254413           .21909269782
D    1   1.00
      0.0910000              1.0000000
F    1   1.00
      1.5980000              1.0000000
****
-Co     0
S    8   1.00
 325817.0155300              0.22568462484D-03
  48839.6364530              0.17499397533D-02
  11114.9373070              0.91003134097D-02
   3146.1603642              0.36996256837D-01
   1024.4378465              0.12044269621
    368.02508816             0.28598731649
    142.91229205             0.40908312004
     56.482649209            0.21500145739
S    4   1.00
    356.40298318            -0.24767059678D-01
    110.31165215            -0.11702139134
     17.659634834            0.55215522200
      7.5059030479           0.53246877060
S    2   1.00
     11.501807176           -0.22942470077
      1.9081994606           0.71180933514
S    1   1.00
      0.79396696891          1.0000000
S    1   1.00
      0.12444448829          1.0000000
S    1   1.00
      0.44444645379D-01      1.0000000
P    6   1.00
   1731.1369144              0.23905767685D-02
    409.91750438             0.19382999967D-01
    131.45648578             0.90905448509D-01
     48.987439714            0.26146681577
     19.537078992            0.42157264570
      7.9287281634           0.24571813557
P    3   1.00
     31.076017584           -0.29438069973D-01
      4.2835180697           0.55615568168
      1.7022921563           0.96772195064
P    1   1.00
      0.64202908602          1.0000000
P    1   1.00
      0.1413080              1.0000000
P    1   1.00
      0.34811056587D-01      1.0000000
D    4   1.00
     68.140745239            0.11983845360D-01
     19.685241019            0.73688540475D-01
      6.9322128825           0.23085496779
      2.6025125694           0.39281059225
D    1   1.00
      0.94016837302           .40203412228
D    1   1.00
      0.30381457794           .21415606743
D    1   1.00
      0.0980000              1.0000000
F    1   1.00
      1.9030000              1.0000000
****
-Ni     0
S    8   1.00
 351535.7293500              0.22529386884D-03
  52695.8092830              0.17468616223D-02
  11992.4682930              0.90849992136D-02
   3394.5776689              0.36940748447D-01
   1105.3594585              0.12032819950
    397.14677769             0.28596715057
    154.27542974             0.40983020196
     61.018723780            0.21620642851
S    4   1.00
    384.45559739            -0.24651279268D-01
    119.04879199            -0.11658505277
     19.137012223            0.54864126676
      8.1526718562           0.52640051122
S    2   1.00
     12.579408642           -0.22797884293
      2.0870866081           0.70703738215
S    1   1.00
      0.86432568555          1.0000000
S    1   1.00
      0.13283169217          1.0000000
S    1   1.00
      0.46845327726D-01      1.0000000
P    6   1.00
   1883.0907486              0.23748258443D-02
    445.95155320             0.19289457172D-01
    143.08430815             0.90718211507D-01
     53.372920722            0.26181414117
     21.321919357            0.42309149832
      8.6643561994           0.24641686015
P    3   1.00
     34.144255211           -0.29677129163D-01
      4.7122455921           0.55616824096
      1.8709231845           0.96357766460
P    1   1.00
      0.70370016267          1.0000000
P    1   1.00
      0.1465880              1.0000000
P    1   1.00
      0.36887339850D-01      1.0000000
D    4   1.00
     74.591603465            0.12077454672D-01
     21.590632752            0.74637262154D-01
      7.6246142580           0.23236775502
      2.8632206762           0.39042651680
D    1   1.00
      1.0311063388            .39509498921
D    1   1.00
      0.33060760691           .21138769167
D    1   1.00
      0.1060000              1.0000000
F    1   1.00
      2.1740000              1.0000000
****
-Cu     0
S    8   1.00
 377518.7992300              0.22811766128D-03
  56589.9843110              0.17688035931D-02
  12878.7117060              0.91993460227D-02
   3645.3752143              0.37411016434D-01
   1187.0072945              0.12189873737
    426.46421902             0.28983900714
    165.70660164             0.41531872174
     65.598942707            0.21905799287
S    4   1.00
    414.41265811            -0.24682525053D-01
    128.32056039            -0.11716827406
     20.622089750            0.55301315941
      8.7821226045           0.52242718609
S    2   1.00
     13.741372006           -0.22736061821
      2.2431246833           0.71761210873
S    1   1.00
      0.89370549079          1.0000000
S    1   1.00
      0.10836699534          1.0000000
S    1   1.00
      0.38806178058D-01      1.0000000
P    6   1.00
   2034.7596692              0.23524822298D-02
    481.90468106             0.19134070751D-01
    154.67482963             0.90171105278D-01
     57.740576969            0.26063284735
     23.099052811            0.42093485770
      9.3882478591           0.24344615121
P    3   1.00
     37.596171210           -0.28991094530D-01
      5.1240690810           0.54919083831
      2.0119996085           0.93793330488
P    1   1.00
      0.73860686002          1.0000000
P    1   1.00